NAME : local_9
TYPE : ATSP
DIMENSION : 5
EDGE_WEIGHT_TYPE : EXPLICIT
EDGE_WEIGHT_FORMAT : FULL_MATRIX
EDGE_WEIGHT_SECTION
0 635 476 10000000 0 
0 0 1000 10000000 635 
0 999 0 810 476 
0 10000000 810 0 10000000 
0 10000000 10000000 10000000 0 
EOF